2	25
903	560	74	997	414	769	26	436	926	680	624	996	686	886	211	127	488	422	423	612	448	816	28	18	508	
960	4	419	903	449	510	425	629	836	33	637	358	159	265	252	337	251	177	434	274	829	22	18	256	827	
1283	1283	
